units			real

neigh_modify    once yes  one  22 page 2200  

atom_style	full
bond_style      harmonic
angle_style     harmonic
dihedral_style  harmonic
pair_style      lj/cut/coul/cut 10.0
pair_modify     mix arithmetic

kspace_style    none 
read_data       ADP.data
thermo          10000

velocity all create 300 3

timestep        2.0

fix             1 all nvt temp 300 300 100.0
fix             2 all shake 0.0001 10 100 b 3 5 7 

special_bonds   amber                               

run 500000

#5 7 9 15 and 7 9 15 17 are the two dihedrals

compute 1 all property/local datom1 datom2 datom3 datom4 dtype
compute 2 all dihedral/local phi
dump 1 all local 10000 dih.dump c_1[*] c_2[*]

dump 5 all custom 10000 300K.trj id mass xu yu zu
dump_modify 5 sort id

run 4990000 

undump 5
unfix 2
unfix 1

undump 1